n=214;
k_min=7;
k_max=7;
M=[| 160, 139, 166, 122, 143, 122, 144
 | 155, 137, 163, 124, 149, 118, 151
 | 153, 138, 163, 123, 149, 118, 151
 | 156, 139, 164, 123, 146, 119, 148
 | 154, 139, 164, 123, 147, 119, 150
 | 153, 140, 164, 124, 147, 119, 148
 | 155, 139, 164, 122, 147, 119, 150
 | 154, 140, 164, 122, 146, 120, 150
 | 158, 137, 166, 124, 146, 118, 147
 | 155, 141, 166, 121, 145, 120, 148
 | 152, 141, 164, 123, 147, 120, 149
 | 155, 142, 165, 121, 144, 121, 147
 | 152, 140, 164, 123, 147, 119, 150
 | 154, 142, 164, 122, 145, 121, 149
 | 154, 143, 164, 122, 144, 122, 148
 | 154, 142, 164, 122, 145, 121, 149
 | 155, 143, 165, 121, 143, 122, 147
 | 166, 140, 161, 122, 141, 123, 143
 | 161, 139, 166, 121, 142, 121, 146
 | 155, 141, 166, 122, 145, 120, 148
 | 156, 142, 164, 122, 144, 121, 147
 | 166, 141, 159, 121, 141, 122, 146
 | 157, 143, 165, 122, 143, 122, 147
 | 155, 142, 166, 121, 144, 121, 148
 | 156, 140, 164, 122, 145, 120, 149
 | 156, 142, 165, 122, 144, 121, 148
 | 156, 140, 165, 122, 145, 119, 148
 | 155, 142, 165, 122, 145, 120, 149
 | 154, 143, 164, 122, 144, 122, 148
 | 156, 141, 165, 122, 145, 120, 148
 | 155, 143, 165, 121, 143, 122, 147
 | 154, 142, 164, 121, 144, 121, 149
 | 155, 142, 164, 122, 144, 121, 148
 | 153, 144, 163, 122, 144, 122, 149
 | 156, 143, 165, 121, 143, 122, 147
 | 157, 141, 165, 122, 144, 120, 148
 | 160, 139, 163, 124, 144, 121, 146
 | 155, 143, 165, 121, 143, 121, 147
 | 166, 142, 160, 121, 139, 125, 143
 | 166, 142, 160, 121, 139, 125, 143
 | 156, 143, 166, 121, 143, 122, 147
 | 154, 143, 165, 121, 143, 122, 148
 | 157, 141, 165, 122, 144, 120, 148
 | 164, 142, 160, 121, 139, 127, 143
 | 156, 143, 164, 121, 143, 122, 147
 | 161, 141, 164, 123, 142, 122, 145
 | 158, 142, 163, 121, 143, 122, 148
 | 164, 143, 160, 122, 138, 127, 143
 | 163, 145, 159, 121, 137, 129, 142
 | 160, 140, 164, 123, 142, 121, 146
 | 162, 144, 159, 122, 138, 130, 143
 | 160, 142, 166, 121, 140, 122, 145
 | 159, 143, 162, 121, 141, 122, 149
 | 159, 144, 162, 121, 140, 123, 148
 | 159, 143, 162, 120, 141, 122, 149
 | 154, 147, 162, 120, 139, 125, 149
 | 155, 141, 164, 122, 145, 120, 149
 | 155, 142, 165, 122, 145, 120, 148
 | 155, 138, 164, 123, 148, 119, 150
 | 156, 139, 165, 122, 146, 119, 149
 | 159, 141, 163, 120, 143, 122, 148
 | 160, 140, 161, 124, 145, 122, 146
 | 166, 142, 161, 121, 139, 125, 143
 | 165, 142, 160, 122, 139, 126, 143
 | 165, 143, 161, 120, 139, 126, 143
 | 163, 142, 163, 120, 140, 124, 144
 | 162, 145, 160, 120, 137, 128, 143
 | 162, 146, 161, 120, 138, 128, 143
 | 162, 145, 161, 120, 138, 128, 143
 | 162, 146, 159, 121, 137, 130, 142
 | 155, 136, 166, 126, 149, 116, 148
 | 158, 138, 166, 124, 146, 119, 146
 | 153, 139, 164, 124, 149, 118, 150
 | 154, 138, 164, 124, 149, 118, 150
 | 153, 139, 165, 124, 148, 118, 150
 | 153, 139, 165, 123, 148, 118, 150
 | 155, 138, 166, 124, 148, 118, 148
 | 154, 139, 166, 123, 147, 118, 149
 | 155, 137, 163, 123, 148, 118, 152
 | 153, 140, 164, 125, 148, 119, 148
 | 153, 140, 164, 126, 148, 119, 148
 | 153, 139, 164, 123, 148, 118, 151
 | 155, 138, 166, 123, 147, 118, 149
 | 154, 139, 165, 123, 147, 118, 149
 | 151, 136, 159, 131, 154, 116, 150
 | 156, 139, 164, 123, 146, 119, 149
 | 153, 139, 166, 122, 147, 118, 151
 | 155, 138, 166, 123, 147, 118, 149
 | 154, 140, 165, 123, 147, 119, 149
 | 152, 142, 164, 124, 147, 120, 149
 | 160, 142, 163, 122, 142, 123, 144
 | 154, 141, 164, 122, 146, 120, 149
 | 155, 141, 163, 121, 145, 121, 151
 | 154, 140, 164, 122, 146, 119, 151
 | 153, 142, 164, 123, 146, 120, 150
 | 158, 140, 164, 123, 144, 120, 147
 | 160, 143, 164, 121, 141, 123, 144
 | 153, 147, 161, 121, 141, 125, 147
 | 154, 143, 163, 122, 144, 121, 149
 | 156, 143, 163, 121, 142, 121, 148
 | 155, 144, 166, 120, 141, 121, 149
 | 155, 148, 161, 122, 139, 126, 146
 | 156, 148, 160, 119, 138, 128, 149
 | 161, 148, 151, 124, 133, 138, 142
 | 166, 147, 154, 121, 133, 132, 144
 | 145, 156, 142, 128, 127, 155, 144
 | 145, 149, 142, 134, 133, 149, 143
 | 146, 152, 141, 131, 129, 155, 142
 | 150, 166, 143, 121, 127, 140, 151
 | 150, 156, 146, 122, 131, 141, 150
 | 144, 153, 141, 126, 127, 165, 142
 | 144, 152, 140, 126, 127, 166, 141
 | 147, 156, 141, 126, 126, 158, 143
 | 157, 138, 165, 123, 147, 119, 148
 | 158, 140, 164, 123, 145, 120, 146
 | 158, 139, 165, 123, 146, 119, 147
 | 157, 139, 165, 123, 146, 119, 146
 | 155, 137, 163, 126, 149, 118, 148
 | 155, 138, 164, 124, 148, 118, 148
 | 155, 137, 165, 124, 148, 118, 149
 | 158, 140, 164, 123, 145, 120, 147
 | 153, 140, 165, 124, 147, 119, 149
 | 155, 139, 165, 123, 147, 119, 149
 | 154, 138, 166, 124, 148, 117, 149
 | 157, 141, 165, 122, 145, 120, 148
 | 157, 141, 164, 123, 144, 121, 146
 | 157, 142, 164, 122, 144, 121, 147
 | 166, 147, 157, 120, 135, 125, 147
 | 162, 146, 157, 121, 136, 124, 149
 | 159, 154, 150, 122, 130, 131, 151
 | 155, 158, 148, 121, 128, 137, 150
 | 149, 159, 141, 126, 126, 150, 146
 | 157, 138, 166, 123, 147, 119, 147
 | 158, 137, 166, 125, 146, 119, 145
 | 156, 139, 166, 122, 147, 118, 148
 | 158, 139, 166, 122, 145, 120, 146
 | 155, 141, 166, 121, 145, 120, 148
 | 154, 140, 166, 123, 147, 119, 148
 | 151, 140, 166, 123, 148, 119, 150
 | 152, 140, 166, 123, 147, 118, 149
 | 155, 138, 166, 124, 147, 118, 148
 | 156, 140, 166, 121, 145, 119, 148
 | 154, 141, 164, 123, 146, 120, 149
 | 154, 140, 166, 123, 147, 118, 148
 | 156, 143, 163, 121, 142, 122, 148
 | 158, 142, 163, 122, 144, 122, 146
 | 158, 140, 163, 121, 144, 121, 149
 | 156, 139, 165, 122, 146, 119, 149
 | 157, 140, 166, 122, 145, 119, 148
 | 154, 144, 162, 123, 144, 123, 146
 | 156, 140, 164, 124, 146, 120, 147
 | 166, 141, 161, 121, 139, 125, 143
 | 158, 141, 163, 119, 142, 123, 149
 | 156, 139, 164, 123, 146, 119, 149
 | 158, 143, 163, 122, 143, 122, 146
 | 156, 142, 164, 121, 144, 121, 149
 | 158, 141, 164, 122, 144, 120, 148
 | 165, 142, 160, 121, 139, 126, 143
 | 159, 140, 164, 123, 143, 121, 146
 | 159, 140, 164, 124, 143, 121, 145
 | 159, 141, 166, 122, 142, 121, 145
 | 159, 140, 166, 119, 142, 122, 148
 | 164, 141, 161, 123, 141, 123, 143
 | 145, 136, 149, 143, 152, 122, 149
 | 157, 151, 155, 121, 133, 131, 148
 | 150, 162, 149, 121, 129, 143, 143
 | 147, 166, 147, 121, 128, 145, 142
 | 148, 156, 145, 123, 128, 145, 150
 | 149, 151, 148, 127, 133, 136, 153
 | 149, 159, 144, 123, 127, 141, 152
 | 148, 166, 142, 122, 124, 146, 149
 | 140, 136, 141, 166, 143, 127, 143
 | 140, 136, 141, 165, 143, 127, 143
 | 148, 164, 142, 123, 125, 148, 148
 | 157, 147, 153, 125, 136, 128, 150
 | 151, 157, 146, 121, 128, 142, 151
 | 162, 147, 157, 119, 137, 125, 149
 | 166, 147, 157, 117, 135, 126, 148
 | 160, 147, 156, 121, 139, 124, 151
 | 162, 146, 156, 120, 138, 124, 151
 | 150, 140, 152, 123, 145, 120, 166
 | 154, 155, 147, 122, 133, 128, 157
 | 151, 159, 144, 122, 128, 136, 157
 | 150, 161, 144, 122, 129, 139, 151
 | 146, 144, 146, 134, 145, 129, 153
 | 145, 133, 152, 136, 166, 116, 148
 | 147, 134, 154, 138, 158, 118, 149
 | 159, 141, 166, 121, 142, 120, 147
 | 155, 146, 152, 131, 138, 127, 147
 | 151, 145, 151, 132, 143, 126, 148
 | 156, 145, 155, 122, 142, 123, 154
 | 149, 148, 146, 126, 138, 125, 165
 | 149, 148, 147, 126, 137, 127, 163
 | 148, 147, 146, 127, 140, 125, 163
 | 148, 147, 146, 126, 140, 125, 165
 | 149, 149, 146, 125, 136, 127, 164
 | 149, 150, 147, 125, 135, 129, 162
 | 149, 149, 146, 125, 137, 125, 166
 | 149, 149, 146, 125, 136, 126, 166
 | 149, 149, 145, 127, 138, 125, 164
 | 148, 147, 146, 128, 140, 125, 162
 | 145, 147, 148, 137, 140, 135, 147
 | 148, 147, 146, 127, 140, 125, 162
 | 148, 146, 145, 128, 141, 125, 163
 | 149, 148, 146, 126, 138, 125, 164
 | 148, 148, 145, 127, 140, 126, 162
 | 149, 148, 146, 127, 139, 126, 162
 | 142, 138, 143, 137, 148, 121, 166
 | 149, 150, 145, 125, 134, 127, 166
 | 149, 148, 146, 127, 137, 127, 162
 | 148, 147, 145, 128, 141, 125, 163
 | 148, 146, 146, 126, 140, 125, 166
 | 148, 146, 146, 126, 140, 125, 165
 | 148, 147, 146, 126, 139, 126, 165 |];
 P=[3, 3, 3, 3, 3, 3, 3, 3, 3, 3, 3, 3, 3, 3, 3, 3, 3, 1, 3, 3, 3, 1, 3, 3, 3, 3, 3, 3, 3, 3, 3, 3, 3, 3, 3, 3, 3, 3, 1, 1, 3, 3, 3, 1, 3, 3, 3, 1, 1, 3, 1, 3, 3, 3, 3, 3, 3, 3, 3, 3, 3, 3, 1, 1, 1, 1, 1, 1, 1, 1, 3, 3, 3, 3, 3, 3, 3, 3, 3, 3, 3, 3, 3, 3, 3, 3, 3, 3, 3, 3, 3, 3, 3, 3, 3, 3, 3, 3, 3, 3, 3, 3, 3, 1, 1, 6, 6, 6, 2, 2, 6, 6, 6, 3, 3, 3, 3, 3, 3, 3, 3, 3, 3, 3, 3, 3, 3, 1, 1, 1, 2, 6, 3, 3, 3, 3, 3, 3, 3, 3, 3, 3, 3, 3, 3, 3, 3, 3, 3, 3, 3, 1, 3, 3, 3, 3, 3, 1, 3, 3, 3, 3, 1, 5, 1, 2, 2, 2, 2, 2, 2, 4, 4, 2, 1, 2, 1, 1, 1, 1, 7, 1, 2, 2, 7, 5, 5, 3, 1, 1, 1, 7, 7, 7, 7, 7, 7, 7, 7, 7, 7, 2, 7, 7, 7, 7, 7, 7, 7, 7, 7, 7, 7, 7 ];